solution status: optimal solution found
objective value:                                    0
shell_j_$_166__1                                    1 	(obj:0)
shell_i_$_57__1                                     1 	(obj:0)
shell_j_thingy.thingy.chamber[6].first.ring__1                    1 	(obj:0)
shell_j_$_61__1                                     1 	(obj:0)
shell_j_thingy.thingy.chamber[7].first.ring__1                    1 	(obj:0)
shell_i_$_305__1                                    1 	(obj:0)
shell_j_thingy.flush_stage_out_hole                    1 	(obj:0)
shell_j_$_247__1                                    1 	(obj:0)
shell_i_$_190__1                                    1 	(obj:0)
shell_i_$_47__1                                     1 	(obj:0)
shell_j_$_260__1                                    1 	(obj:0)
shell_j_$_224__1                                    1 	(obj:0)
shell_j_$_175__1                                    1 	(obj:0)
shell_i_$_178__1                                    1 	(obj:0)
shell_i_$_320__1                                    1 	(obj:0)
shell_j_$_320__1                                    1 	(obj:0)
shell_j_$_77__1                                     1 	(obj:0)
shell_i_$_290__1                                    1 	(obj:0)
shell_j_$_228__1                                    1 	(obj:0)
shell_j_$_256__1                                    1 	(obj:0)
shell_j_$_206__1                                    1 	(obj:0)
shell_j_$_83__1                                     1 	(obj:0)
shell_i_thingy.thingy.chamber[8].first.ring__1                    1 	(obj:0)
shell_j_$_300__1                                    1 	(obj:0)
shell_j_$_168__1                                    1 	(obj:0)
shell_j_$_308__1                                    1 	(obj:0)
shell_j_$_193__1                                    1 	(obj:0)
shell_j_$_73__1                                     1 	(obj:0)
shell_j_$_65__1                                     1 	(obj:0)
shell_j_$_46__1                                     1 	(obj:0)
shell_j_$_281__1                                    1 	(obj:0)
shell_j_$_304__1                                    1 	(obj:0)
shell_j_thingy.thingy.chamber[3].first.ring__1                    1 	(obj:0)
shell_j_$_271__1                                    1 	(obj:0)
shell_j_thingy.thingy.prep.ring__1                    1 	(obj:0)
shell_j_$_223__1                                    1 	(obj:0)
shell_j_$_235__1                                    1 	(obj:0)
shell_j_$_255__1                                    1 	(obj:0)
shell_j_$_233__1                                    1 	(obj:0)
shell_j_thingy.ctrl_stage_out_hole                    1 	(obj:0)
shell_j_$_66__1                                     1 	(obj:0)
shell_j_$_284__1                                    1 	(obj:0)
shell_j_$_64__1                                     1 	(obj:0)
shell_j_$_251__1                                    1 	(obj:0)
shell_j_$_51__1                                     1 	(obj:0)
shell_j_$_252__1                                    1 	(obj:0)
shell_j_thingy.thingy.chamber[2].first.ring__1                    1 	(obj:0)
shell_i_$_82__1                                     1 	(obj:0)
shell_j_$_60__1                                     1 	(obj:0)
shell_j_$_62__1                                     1 	(obj:0)
shell_i_thingy.thingy.chamber[9].first.ring__1                    1 	(obj:0)
shell_i_$_268__1                                    1 	(obj:0)
shell_j_$_171__1                                    1 	(obj:0)
shell_j_$_196__1                                    1 	(obj:0)
shell_j_$_254__1                                    1 	(obj:0)
shell_j_$_183__1                                    1 	(obj:0)
shell_j_$_48__1                                     1 	(obj:0)
shell_j_$_219__1                                    1 	(obj:0)
shell_j_$_42__1                                     1 	(obj:0)
shell_j_$_59__1                                     1 	(obj:0)
shell_j_$_220__1                                    1 	(obj:0)
shell_j_$_55__1                                     1 	(obj:0)
shell_j_$_299__1                                    1 	(obj:0)
shell_i_$_240__1                                    1 	(obj:0)
shell_j_$_267__1                                    1 	(obj:0)
shell_j_$_69__1                                     1 	(obj:0)
shell_i_$_265__1                                    1 	(obj:0)
shell_j_$_63__1                                     1 	(obj:0)
shell_j_$_187__1                                    1 	(obj:0)
shell_i_$_258__1                                    1 	(obj:0)
shell_i_$_306__1                                    1 	(obj:0)
shell_j_$_276__1                                    1 	(obj:0)
shell_j_$_292__1                                    1 	(obj:0)
shell_j_$_194__1                                    1 	(obj:0)
shell_j_$_58__1                                     1 	(obj:0)
shell_j_thingy.ctrl_stage_in_hole                    1 	(obj:0)
shell_j_$_297__1                                    1 	(obj:0)
shell_j_$_52__1                                     1 	(obj:0)
shell_j_$_215__1                                    1 	(obj:0)
shell_j_$_174__1                                    1 	(obj:0)
shell_j_$_210__1                                    1 	(obj:0)
shell_i_$_289__1                                    1 	(obj:0)
shell_i_$_176__1                                    1 	(obj:0)
shell_j_$_217__1                                    1 	(obj:0)
shell_j_$_263__1                                    1 	(obj:0)
shell_j_$_199__1                                    1 	(obj:0)
shell_j_$_201__1                                    1 	(obj:0)
shell_j_$_270__1                                    1 	(obj:0)
shell_i_$_242__1                                    1 	(obj:0)
shell_j_thingy.flush_stage_in_hole                    1 	(obj:0)
shell_i_$_177__1                                    1 	(obj:0)
shell_j_$_177__1                                    1 	(obj:0)
shell_j_$_54__1                                     1 	(obj:0)
shell_j_$_45__1                                     1 	(obj:0)
shell_j_$_74__1                                     1 	(obj:0)
shell_j_$_283__1                                    1 	(obj:0)
shell_j_$_67__1                                     1 	(obj:0)
shell_j_$_70__1                                     1 	(obj:0)
shell_j_$_288__1                                    1 	(obj:0)
shell_j_$_222__1                                    1 	(obj:0)
shell_j_$_295__1                                    1 	(obj:0)
shell_j_$_238__1                                    1 	(obj:0)
shell_j_$_239__1                                    1 	(obj:0)
shell_j_$_180__1                                    1 	(obj:0)
shell_j_$_44__1                                     1 	(obj:0)
shell_j_$_303__1                                    1 	(obj:0)
shell_j_$_81__1                                     1 	(obj:0)
shell_j_$_226__1                                    1 	(obj:0)
shell_j_thingy.thingy.chamber[5].first.ring__1                    1 	(obj:0)
shell_j_$_209__1                                    1 	(obj:0)
shell_j_$_287__1                                    1 	(obj:0)
shell_j_$_204__1                                    1 	(obj:0)
shell_j_$_191__1                                    1 	(obj:0)
shell_j_$_321__1                                    1 	(obj:0)
shell_j_$_43__1                                     1 	(obj:0)
shell_j_$_236__1                                    1 	(obj:0)
shell_j_$_185__1                                    1 	(obj:0)
shell_j_$_274__1                                    1 	(obj:0)
shell_i_thingy.thingy.chamber[0].first.ring__1                    1 	(obj:0)
shell_j_thingy.thingy.chamber[0].first.ring__1                    1 	(obj:0)
shell_j_$_53__1                                     1 	(obj:0)
shell_j_$_207__1                                    1 	(obj:0)
shell_i_$_273__1                                    1 	(obj:0)
shell_j_$_68__1                                     1 	(obj:0)
shell_j_$_231__1                                    1 	(obj:0)
shell_j_$_208__1                                    1 	(obj:0)
shell_i_$_257__1                                    1 	(obj:0)
shell_j_$_76__1                                     1 	(obj:0)
shell_j_$_173__1                                    1 	(obj:0)
shell_j_$_79__1                                     1 	(obj:0)
shell_j_$_170__1                                    1 	(obj:0)
shell_j_$_203__1                                    1 	(obj:0)
shell_j_$_279__1                                    1 	(obj:0)
shell_j_$_41__1                                     1 	(obj:0)
shell_j_$_80__1                                     1 	(obj:0)
shell_j_$_302__1                                    1 	(obj:0)
shell_j_$_212__1                                    1 	(obj:0)
shell_i_$_244__1                                    1 	(obj:0)
shell_i_$_225__1                                    1 	(obj:0)
shell_j_$_192__1                                    1 	(obj:0)
shell_j_thingy.thingy.chamber[4].first.ring__1                    1 	(obj:0)
shell_j_thingy.thingy.chamber[1].first.ring__1                    1 	(obj:0)
shell_i_$_286__1                                    1 	(obj:0)
shell_j_$_188__1                                    1 	(obj:0)
shell_j_$_40__1                                     1 	(obj:0)
shell_i_$_241__1                                    1 	(obj:0)
shell_j_$_249__1                                    1 	(obj:0)
shell_j_$_75__1                                     1 	(obj:0)
shell_j_$_272__1                                    1 	(obj:0)
$_59__1_z                                           6 	(obj:0)
$_168__1_y                                          3 	(obj:0)
$_168__1_z                                         -1 	(obj:0)
$_220__1_x                                          3 	(obj:0)
$_220__1_y                                          3 	(obj:0)
$_220__1_z                                          5 	(obj:0)
$_47__1_y                                           2 	(obj:0)
$_47__1_z                                          11 	(obj:0)
$_55__1_x                                           3 	(obj:0)
$_55__1_y                                          -3 	(obj:0)
$_55__1_z                                           5 	(obj:0)
$_308__1_y                                         -3 	(obj:0)
$_299__1_x                                          3 	(obj:0)
$_299__1_y                                          3 	(obj:0)
$_299__1_z                                         16 	(obj:0)
$_308__1_z                                          7 	(obj:0)
$_57__1_y                                           2 	(obj:0)
$_240__1_x                                          3 	(obj:0)
$_240__1_z                                         13 	(obj:0)
$_193__1_x                                          1 	(obj:0)
$_267__1_x                                          3 	(obj:0)
$_267__1_y                                          3 	(obj:0)
$_267__1_z                                         15 	(obj:0)
$_193__1_y                                         -3 	(obj:0)
$_193__1_z                                          5 	(obj:0)
$_69__1_y                                          -3 	(obj:0)
$_69__1_z                                          11 	(obj:0)
$_260__1_y                                         -3 	(obj:0)
$_265__1_x                                          3 	(obj:0)
$_265__1_y                                          2 	(obj:0)
$_265__1_z                                         17 	(obj:0)
$_73__1_y                                          -3 	(obj:0)
$_63__1_x                                           2 	(obj:0)
$_63__1_y                                          -3 	(obj:0)
$_63__1_z                                          13 	(obj:0)
$_73__1_z                                          15 	(obj:0)
$_260__1_z                                         17 	(obj:0)
$_187__1_x                                          3 	(obj:0)
$_187__1_y                                          3 	(obj:0)
$_187__1_z                                          8 	(obj:0)
$_258__1_x                                         -3 	(obj:0)
$_258__1_y                                          1 	(obj:0)
$_258__1_z                                         11 	(obj:0)
$_65__1_y                                          -3 	(obj:0)
$_65__1_z                                          -3 	(obj:0)
$_306__1_x                                         -3 	(obj:0)
$_306__1_z                                          7 	(obj:0)
thingy.thingy.chamber[7].first.ring__1_y                   -3 	(obj:0)
$_224__1_x                                          2 	(obj:0)
$_276__1_y                                          3 	(obj:0)
$_276__1_z                                         13 	(obj:0)
$_46__1_y                                           3 	(obj:0)
$_292__1_x                                          2 	(obj:0)
$_292__1_y                                          3 	(obj:0)
$_292__1_z                                         13 	(obj:0)
$_46__1_z                                          11 	(obj:0)
$_224__1_y                                          3 	(obj:0)
$_194__1_y                                          3 	(obj:0)
$_194__1_z                                          7 	(obj:0)
$_224__1_z                                         16 	(obj:0)
$_281__1_x                                         -3 	(obj:0)
$_58__1_x                                          -3 	(obj:0)
$_58__1_y                                          -3 	(obj:0)
$_58__1_z                                          -1 	(obj:0)
$_281__1_y                                         -3 	(obj:0)
$_281__1_z                                         17 	(obj:0)
thingy.ctrl_stage_in_hole_x                        -3 	(obj:0)
thingy.ctrl_stage_in_hole_y                        -3 	(obj:0)
thingy.ctrl_stage_in_hole_z                        10 	(obj:0)
thingy.thingy.chamber[7].first.ring__1_z                    3 	(obj:0)
$_166__1_z                                         17 	(obj:0)
$_297__1_x                                         -2 	(obj:0)
$_297__1_y                                         -3 	(obj:0)
$_297__1_z                                          5 	(obj:0)
$_304__1_x                                         -2 	(obj:0)
$_304__1_y                                         -3 	(obj:0)
$_52__1_x                                          -2 	(obj:0)
$_52__1_y                                           3 	(obj:0)
$_52__1_z                                          11 	(obj:0)
$_304__1_z                                          2 	(obj:0)
$_215__1_x                                         -1 	(obj:0)
$_215__1_y                                          3 	(obj:0)
$_215__1_z                                         13 	(obj:0)
$_175__1_y                                         -3 	(obj:0)
thingy.thingy.chamber[3].first.ring__1_x                   -3 	(obj:0)
$_174__1_x                                          3 	(obj:0)
$_174__1_y                                          3 	(obj:0)
$_174__1_z                                         13 	(obj:0)
thingy.thingy.chamber[3].first.ring__1_y                   -3 	(obj:0)
thingy.thingy.chamber[3].first.ring__1_z                   14 	(obj:0)
$_210__1_y                                          3 	(obj:0)
$_210__1_z                                          8 	(obj:0)
$_175__1_z                                          5 	(obj:0)
$_289__1_x                                         -3 	(obj:0)
$_289__1_z                                          6 	(obj:0)
$_271__1_y                                         -3 	(obj:0)
$_176__1_x                                         -3 	(obj:0)
$_176__1_y                                         -2 	(obj:0)
$_176__1_z                                          7 	(obj:0)
$_271__1_z                                          8 	(obj:0)
$_305__1_x                                         -3 	(obj:0)
$_217__1_x                                         -1 	(obj:0)
$_217__1_y                                          3 	(obj:0)
$_217__1_z                                         11 	(obj:0)
$_178__1_x                                         -3 	(obj:0)
thingy.thingy.prep.ring__1_x                       -1 	(obj:0)
$_263__1_x                                         -2 	(obj:0)
$_263__1_y                                          3 	(obj:0)
$_263__1_z                                          3 	(obj:0)
thingy.thingy.prep.ring__1_y                       -3 	(obj:0)
thingy.thingy.prep.ring__1_z                        3 	(obj:0)
$_199__1_x                                         -3 	(obj:0)
$_199__1_y                                          3 	(obj:0)
$_199__1_z                                         16 	(obj:0)
$_178__1_z                                          8 	(obj:0)
$_201__1_y                                          3 	(obj:0)
$_201__1_z                                         -1 	(obj:0)
$_223__1_x                                         -3 	(obj:0)
$_223__1_y                                          3 	(obj:0)
$_270__1_x                                         -1 	(obj:0)
$_270__1_y                                          3 	(obj:0)
$_270__1_z                                          3 	(obj:0)
$_223__1_z                                          8 	(obj:0)
$_305__1_y                                         -2 	(obj:0)
$_242__1_x                                         -3 	(obj:0)
$_242__1_y                                          3 	(obj:0)
$_242__1_z                                          9 	(obj:0)
$_305__1_z                                          5 	(obj:0)
$_235__1_x                                         -1 	(obj:0)
thingy.flush_stage_in_hole_x                       -3 	(obj:0)
thingy.flush_stage_in_hole_y                       -3 	(obj:0)
thingy.flush_stage_in_hole_z                        5 	(obj:0)
$_235__1_y                                         -3 	(obj:0)
$_235__1_z                                          4 	(obj:0)
$_177__1_x                                         -3 	(obj:0)
$_177__1_y                                         -3 	(obj:0)
$_177__1_z                                          9 	(obj:0)
$_320__1_x                                         -3 	(obj:0)
$_320__1_y                                         -3 	(obj:0)
$_54__1_x                                          -3 	(obj:0)
$_54__1_y                                           3 	(obj:0)
$_54__1_z                                           3 	(obj:0)
$_255__1_x                                         -1 	(obj:0)
$_255__1_y                                         -3 	(obj:0)
$_45__1_x                                          -2 	(obj:0)
$_45__1_y                                          -3 	(obj:0)
$_45__1_z                                           9 	(obj:0)
$_255__1_z                                          5 	(obj:0)
$_320__1_z                                          7 	(obj:0)
$_74__1_x                                          -3 	(obj:0)
$_74__1_y                                          -3 	(obj:0)
$_74__1_z                                           3 	(obj:0)
thingy.thingy.chamber[6].first.ring__1_x                   -1 	(obj:0)
$_233__1_x                                         -2 	(obj:0)
$_283__1_x                                         -3 	(obj:0)
$_283__1_y                                          3 	(obj:0)
$_283__1_z                                          5 	(obj:0)
$_233__1_y                                         -3 	(obj:0)
$_233__1_z                                         17 	(obj:0)
$_67__1_x                                          -2 	(obj:0)
$_67__1_y                                          -3 	(obj:0)
$_67__1_z                                           1 	(obj:0)
thingy.thingy.chamber[6].first.ring__1_y                    3 	(obj:0)
$_77__1_x                                          -2 	(obj:0)
$_70__1_x                                          -1 	(obj:0)
$_70__1_y                                          -3 	(obj:0)
$_70__1_z                                           2 	(obj:0)
thingy.ctrl_stage_out_hole_x                       -2 	(obj:0)
thingy.ctrl_stage_out_hole_y                       -3 	(obj:0)
$_288__1_x                                         -3 	(obj:0)
$_288__1_y                                          3 	(obj:0)
$_288__1_z                                         10 	(obj:0)
thingy.ctrl_stage_out_hole_z                        7 	(obj:0)
$_77__1_y                                          -3 	(obj:0)
$_222__1_x                                          3 	(obj:0)
$_222__1_y                                          3 	(obj:0)
$_222__1_z                                         12 	(obj:0)
$_77__1_z                                          13 	(obj:0)
$_66__1_x                                          -2 	(obj:0)
$_295__1_x                                         -1 	(obj:0)
$_295__1_y                                          3 	(obj:0)
$_295__1_z                                          4 	(obj:0)
$_66__1_y                                          -3 	(obj:0)
$_66__1_z                                          -3 	(obj:0)
$_238__1_x                                          3 	(obj:0)
$_238__1_y                                          3 	(obj:0)
$_238__1_z                                          7 	(obj:0)
thingy.flush_stage_out_hole_x                      -2 	(obj:0)
thingy.flush_stage_out_hole_y                      -3 	(obj:0)
$_239__1_x                                         -3 	(obj:0)
$_239__1_y                                          3 	(obj:0)
$_239__1_z                                         12 	(obj:0)
$_284__1_x                                         -3 	(obj:0)
$_284__1_y                                         -3 	(obj:0)
$_180__1_x                                          3 	(obj:0)
$_180__1_y                                          3 	(obj:0)
$_284__1_z                                         -2 	(obj:0)
$_290__1_x                                         -3 	(obj:0)
$_44__1_x                                          -1 	(obj:0)
$_44__1_y                                          -3 	(obj:0)
$_44__1_z                                          -1 	(obj:0)
$_290__1_y                                          1 	(obj:0)
$_64__1_x                                          -2 	(obj:0)
$_303__1_x                                         -3 	(obj:0)
$_303__1_y                                          3 	(obj:0)
$_303__1_z                                          4 	(obj:0)
$_64__1_y                                          -3 	(obj:0)
$_64__1_z                                          -1 	(obj:0)
$_81__1_x                                          -1 	(obj:0)
$_81__1_y                                           3 	(obj:0)
$_81__1_z                                           8 	(obj:0)
$_290__1_z                                          5 	(obj:0)
thingy.flush_stage_out_hole_z                      11 	(obj:0)
$_226__1_x                                          1 	(obj:0)
$_226__1_y                                          3 	(obj:0)
$_226__1_z                                         11 	(obj:0)
$_251__1_x                                         -1 	(obj:0)
$_251__1_y                                         -3 	(obj:0)
thingy.thingy.chamber[5].first.ring__1_x                   -2 	(obj:0)
thingy.thingy.chamber[5].first.ring__1_y                   -3 	(obj:0)
thingy.thingy.chamber[5].first.ring__1_z                   15 	(obj:0)
$_251__1_z                                         15 	(obj:0)
thingy.thingy.chamber[6].first.ring__1_z                    9 	(obj:0)
$_209__1_x                                         -3 	(obj:0)
$_209__1_y                                         -3 	(obj:0)
$_209__1_z                                          8 	(obj:0)
$_228__1_x                                         -2 	(obj:0)
$_51__1_x                                          -1 	(obj:0)
$_287__1_x                                         -3 	(obj:0)
$_287__1_y                                         -3 	(obj:0)
$_287__1_z                                          4 	(obj:0)
$_51__1_y                                          -3 	(obj:0)
$_51__1_z                                           8 	(obj:0)
$_204__1_x                                         -3 	(obj:0)
$_204__1_y                                          3 	(obj:0)
$_204__1_z                                         17 	(obj:0)
$_228__1_y                                          3 	(obj:0)
$_228__1_z                                         10 	(obj:0)
$_191__1_x                                          3 	(obj:0)
$_191__1_y                                          3 	(obj:0)
$_191__1_z                                         14 	(obj:0)
$_252__1_x                                         -1 	(obj:0)
$_252__1_y                                          3 	(obj:0)
$_321__1_x                                         -3 	(obj:0)
$_321__1_y                                         -3 	(obj:0)
$_321__1_z                                          6 	(obj:0)
$_252__1_z                                          6 	(obj:0)
$_166__1_y                                          3 	(obj:0)
$_43__1_x                                          -3 	(obj:0)
$_43__1_y                                           3 	(obj:0)
$_43__1_z                                          -3 	(obj:0)
$_247__1_x                                         -2 	(obj:0)
thingy.thingy.chamber[2].first.ring__1_x                   -1 	(obj:0)
$_236__1_x                                         -2 	(obj:0)
$_236__1_y                                          3 	(obj:0)
$_236__1_z                                         17 	(obj:0)
thingy.thingy.chamber[2].first.ring__1_y                    3 	(obj:0)
thingy.thingy.chamber[2].first.ring__1_z                    5 	(obj:0)
$_185__1_x                                         -3 	(obj:0)
$_185__1_y                                         -3 	(obj:0)
$_185__1_z                                         11 	(obj:0)
$_256__1_x                                         -2 	(obj:0)
$_256__1_y                                         -3 	(obj:0)
$_274__1_x                                         -1 	(obj:0)
$_274__1_y                                         -3 	(obj:0)
$_274__1_z                                          9 	(obj:0)
$_82__1_x                                           3 	(obj:0)
thingy.thingy.chamber[0].first.ring__1_x                   -3 	(obj:0)
thingy.thingy.chamber[0].first.ring__1_y                   -3 	(obj:0)
thingy.thingy.chamber[0].first.ring__1_z                   13 	(obj:0)
$_82__1_z                                           5 	(obj:0)
$_256__1_z                                          8 	(obj:0)
$_53__1_x                                          -2 	(obj:0)
$_53__1_y                                           3 	(obj:0)
$_53__1_z                                           6 	(obj:0)
$_247__1_y                                         -3 	(obj:0)
$_60__1_x                                          -1 	(obj:0)
$_207__1_x                                          3 	(obj:0)
$_207__1_y                                          3 	(obj:0)
$_207__1_z                                          6 	(obj:0)
$_60__1_y                                           3 	(obj:0)
$_60__1_z                                          10 	(obj:0)
$_273__1_x                                         -3 	(obj:0)
$_273__1_y                                         -2 	(obj:0)
$_273__1_z                                          6 	(obj:0)
$_247__1_z                                          3 	(obj:0)
$_206__1_x                                         -2 	(obj:0)
$_68__1_x                                           3 	(obj:0)
$_68__1_y                                          -3 	(obj:0)
$_68__1_z                                          11 	(obj:0)
$_62__1_x                                          -1 	(obj:0)
$_62__1_y                                          -3 	(obj:0)
$_231__1_x                                         -1 	(obj:0)
$_231__1_y                                          3 	(obj:0)
$_231__1_z                                         15 	(obj:0)
$_206__1_y                                         -3 	(obj:0)
$_208__1_y                                          3 	(obj:0)
$_208__1_z                                          9 	(obj:0)
$_206__1_z                                          6 	(obj:0)
thingy.thingy.chamber[9].first.ring__1_x                   -3 	(obj:0)
$_257__1_x                                         -3 	(obj:0)
$_257__1_y                                         -1 	(obj:0)
$_257__1_z                                          9 	(obj:0)
thingy.thingy.chamber[9].first.ring__1_z                    5 	(obj:0)
$_76__1_y                                          -3 	(obj:0)
$_76__1_z                                          13 	(obj:0)
$_57__1_x                                          -3 	(obj:0)
$_61__1_x                                          -1 	(obj:0)
$_173__1_x                                         -2 	(obj:0)
$_173__1_y                                          3 	(obj:0)
$_173__1_z                                         14 	(obj:0)
$_268__1_x                                         -3 	(obj:0)
$_79__1_x                                          -1 	(obj:0)
$_79__1_y                                          -3 	(obj:0)
$_79__1_z                                          12 	(obj:0)
$_268__1_z                                         10 	(obj:0)
$_83__1_x                                           3 	(obj:0)
$_170__1_x                                          3 	(obj:0)
$_170__1_y                                          3 	(obj:0)
$_170__1_z                                         18 	(obj:0)
$_83__1_y                                          -3 	(obj:0)
$_203__1_x                                          3 	(obj:0)
$_203__1_y                                          3 	(obj:0)
$_203__1_z                                          2 	(obj:0)
$_171__1_y                                          3 	(obj:0)
$_171__1_z                                         15 	(obj:0)
$_279__1_x                                         -2 	(obj:0)
$_279__1_y                                         -3 	(obj:0)
$_279__1_z                                          4 	(obj:0)
$_83__1_z                                           1 	(obj:0)
$_190__1_x                                         -3 	(obj:0)
$_41__1_x                                          -3 	(obj:0)
$_41__1_y                                           3 	(obj:0)
$_41__1_z                                          13 	(obj:0)
$_196__1_y                                          3 	(obj:0)
$_80__1_x                                          -1 	(obj:0)
$_80__1_y                                          -3 	(obj:0)
$_80__1_z                                           7 	(obj:0)
$_190__1_y                                         -2 	(obj:0)
$_302__1_x                                         -1 	(obj:0)
$_302__1_y                                         -3 	(obj:0)
$_302__1_z                                         13 	(obj:0)
thingy.thingy.chamber[8].first.ring__1_x                   -3 	(obj:0)
$_254__1_x                                         -2 	(obj:0)
$_212__1_y                                          3 	(obj:0)
$_212__1_z                                          3 	(obj:0)
$_254__1_y                                          3 	(obj:0)
$_254__1_z                                          7 	(obj:0)
$_244__1_x                                         -3 	(obj:0)
$_244__1_z                                         17 	(obj:0)
thingy.thingy.chamber[8].first.ring__1_y                   -1 	(obj:0)
thingy.thingy.chamber[8].first.ring__1_z                    5 	(obj:0)
$_225__1_x                                         -3 	(obj:0)
$_225__1_z                                         12 	(obj:0)
$_183__1_x                                          3 	(obj:0)
$_183__1_y                                          3 	(obj:0)
$_192__1_y                                          3 	(obj:0)
$_192__1_z                                          5 	(obj:0)
$_183__1_z                                         17 	(obj:0)
$_190__1_z                                         13 	(obj:0)
thingy.thingy.chamber[4].first.ring__1_x                   -2 	(obj:0)
thingy.thingy.chamber[4].first.ring__1_y                   -3 	(obj:0)
thingy.thingy.chamber[4].first.ring__1_z                   14 	(obj:0)
$_61__1_y                                          -3 	(obj:0)
$_48__1_x                                          -1 	(obj:0)
thingy.thingy.chamber[1].first.ring__1_y                   -3 	(obj:0)
thingy.thingy.chamber[1].first.ring__1_z                    6 	(obj:0)
$_48__1_y                                          -3 	(obj:0)
$_48__1_z                                          10 	(obj:0)
$_286__1_x                                         -3 	(obj:0)
$_286__1_z                                          9 	(obj:0)
$_300__1_x                                         -2 	(obj:0)
$_300__1_y                                         -3 	(obj:0)
$_188__1_y                                          3 	(obj:0)
$_188__1_z                                         14 	(obj:0)
$_219__1_x                                         -2 	(obj:0)
$_219__1_y                                          3 	(obj:0)
$_40__1_x                                           3 	(obj:0)
$_40__1_y                                          -3 	(obj:0)
$_40__1_z                                          12 	(obj:0)
$_219__1_z                                          8 	(obj:0)
$_300__1_z                                         10 	(obj:0)
$_241__1_x                                         -3 	(obj:0)
$_241__1_y                                         -2 	(obj:0)
$_241__1_z                                          9 	(obj:0)
$_61__1_z                                           6 	(obj:0)
$_42__1_x                                          -1 	(obj:0)
$_249__1_x                                         -2 	(obj:0)
$_249__1_y                                          3 	(obj:0)
$_249__1_z                                          5 	(obj:0)
$_42__1_y                                          -3 	(obj:0)
$_42__1_z                                          11 	(obj:0)
$_75__1_x                                           3 	(obj:0)
$_75__1_y                                          -3 	(obj:0)
$_75__1_z                                           4 	(obj:0)
$_47__1_x                                          -3 	(obj:0)
$_168__1_x                                          3 	(obj:0)
$_272__1_y                                          3 	(obj:0)
$_272__1_z                                         10 	(obj:0)
$_59__1_x                                           3 	(obj:0)
$_59__1_y                                          -3 	(obj:0)
